tsp_instances/TSP50/instance102.tsp
NODE_COORD_SECTION
0 3 167
1 120 7
2 84 187
3 86 8
4 43 98
5 47 172
6 174 74
7 147 123
8 47 84
9 40 156
10 168 173
11 25 57
12 73 127
13 169 31
14 67 197
15 15 68
16 42 61
17 12 166
18 26 86
19 99 107
20 155 53
21 87 173
22 35 196
23 69 41
24 40 191
25 6 121
26 10 85
27 128 80
28 63 21
29 84 92
30 44 161
31 181 23
32 135 67
33 137 107
34 197 5
35 96 175
36 117 133
37 200 199
38 8 130
39 177 176
40 9 106
41 28 27
42 145 0
43 22 95
44 103 53
45 53 55
46 191 100
47 42 54
48 88 98
49 168 94
