tsp_instances/TSP50/instance102.opt.tour
TOUR_SECTION
1
18
10
31
6
25
23
15
3
22
36
37
13
20
49
30
45
33
28
34
8
11
40
38
47
50
7
21
14
32
35
43
2
4
29
24
46
17
48
42
12
16
27
19
9
5
44
41
26
39
-1